(set-info :smt-lib-version 2.7)
(set-logic QF_NIA)
(set-info :source  | 
Generated by: Johannes Bauer
Generated on: 2026-06-18
Generator: mgm A12 Test Data Generator
Application: ELSTER
Target solver: Z3, Yices2, CVC5
Script is based on the ELSTER form: capital gains tax registration (A / KapEStInvStG)
Characteristic of the form: easy.
In this script, all terms of the form (* x1 x2 x3 ...) are in the form (* x1 c2 c3 ...),
all terms of the form (div x y) are in the form (div x c) and the symbol mod is exclusively used in the form (mod x c),
where x, y, and x1, x2, x3 ... are free constants and c, c2, c3 ... are terms in the form n or (-n) for some numeral n.
The script starts with the base constraints, which define a valid data set for the corresponding form. After the first (push 1), control constraints follow.
The goal of the control constraints in this script is to fill up a data set with values, after the characteristics of the high test coverage were placed.
number variables: 130, number constraints: 158
"https://www.elster.de/eportal/start?locale=en_US"
"https://www.mgm-tp.com/q12-tdg.html"
"https://a12.ai/public-sector"
|)
(set-info :license "https://creativecommons.org/licenses/by/4.0/")
(set-info :category "industrial")
(set-info :major-phase |variable declarations|)
(declare-fun I1-i () Int)
(declare-fun I2-N () Int)
(declare-fun B3-F () Bool)
(declare-fun I3-i () Int)
(declare-fun B4-F () Bool)
(declare-fun B5-F () Bool)
(declare-fun B6-F () Bool)
(declare-fun B7-F () Bool)
(declare-fun I7-y () Int)
(declare-fun B8-F () Bool)
(declare-fun I8-N () Int)
(declare-fun B9-F () Bool)
(declare-fun I10-N () Int)
(declare-fun I11-y () Int)
(declare-fun I11-m () Int)
(declare-fun I11-d () Int)
(declare-fun I12-y () Int)
(declare-fun I12-m () Int)
(declare-fun I12-d () Int)
(declare-fun I13 () Int)
(declare-fun I14 () Int)
(declare-fun I15 () Int)
(declare-fun I16-s-y () Int)
(declare-fun I16-s-m () Int)
(declare-fun I16-s-d () Int)
(declare-fun I16-e-y () Int)
(declare-fun I16-e-m () Int)
(declare-fun I16-e-d () Int)
(declare-fun I17-y () Int)
(declare-fun I17-m () Int)
(declare-fun I17-d () Int)
(declare-fun I18-y () Int)
(declare-fun I18-m () Int)
(declare-fun I18-d () Int)
(declare-fun I19 () Int)
(declare-fun I20 () Int)
(declare-fun I21 () Int)
(declare-fun I22 () Int)
(declare-fun I23-s-y () Int)
(declare-fun I23-s-m () Int)
(declare-fun I23-s-d () Int)
(declare-fun I23-e-y () Int)
(declare-fun I23-e-m () Int)
(declare-fun I23-e-d () Int)
(declare-fun I24-y () Int)
(declare-fun I24-m () Int)
(declare-fun I24-d () Int)
(declare-fun I25-y () Int)
(declare-fun I25-m () Int)
(declare-fun I25-d () Int)
(declare-fun I26 () Int)
(declare-fun I27 () Int)
(declare-fun I28-N () Int)
(declare-fun I29-y () Int)
(declare-fun I29-m () Int)
(declare-fun I29-d () Int)
(declare-fun B30-F () Bool)
(declare-fun I30-y () Int)
(declare-fun I30-m () Int)
(declare-fun I30-d () Int)
(declare-fun B31-F () Bool)
(declare-fun I31-y () Int)
(declare-fun I31-m () Int)
(declare-fun I31-d () Int)
(declare-fun I32 () Int)
(declare-fun I33 () Int)
(declare-fun I34 () Int)
(declare-fun I35 () Int)
(declare-fun I36-y () Int)
(declare-fun I36-m () Int)
(declare-fun I36-d () Int)
(declare-fun I37 () Int)
(declare-fun I38 () Int)
(declare-fun I39 () Int)
(declare-fun I40 () Int)
(declare-fun B41-F () Bool)
(declare-fun B42-F () Bool)
(declare-fun I42 () Int)
(declare-fun B43-F () Bool)
(declare-fun I43 () Int)
(declare-fun B44-F () Bool)
(declare-fun I45 () Int)
(declare-fun I46 () Int)
(declare-fun B47-F () Bool)
(declare-fun I47-y () Int)
(declare-fun I47-m () Int)
(declare-fun I47-d () Int)
(declare-fun B48-F () Bool)
(declare-fun B49-F () Bool)
(declare-fun I49 () Int)
(declare-fun B50-F () Bool)
(declare-fun I50 () Int)
(declare-fun B51-F () Bool)
(declare-fun B52-F () Bool)
(declare-fun B53-F () Bool)
(declare-fun I53 () Int)
(declare-fun B54-F () Bool)
(declare-fun I54 () Int)
(declare-fun B55-F () Bool)
(declare-fun B56-F () Bool)
(declare-fun B57-F () Bool)
(declare-fun B58-F () Bool)
(declare-fun I58 () Int)
(declare-fun B59-F () Bool)
(declare-fun I59 () Int)
(declare-fun B60-F () Bool)
(declare-fun B61-F () Bool)
(declare-fun B62-F () Bool)
(declare-fun I62 () Int)
(declare-fun B63-F () Bool)
(declare-fun B64-F () Bool)
(declare-fun I64 () Int)
(declare-fun B65-F () Bool)
(declare-fun I65 () Int)
(declare-fun B66-F () Bool)
(declare-fun I66 () Int)
(declare-fun B67-F () Bool)
(declare-fun I67 () Int)
(declare-fun B68-F () Bool)
(declare-fun I68 () Int)
(declare-fun B69-F () Bool)
(declare-fun I69 () Int)
(declare-fun B70-F () Bool)
(declare-fun I71 () Int)
(declare-fun B72-F () Bool)
(declare-fun B73-F () Bool)
(declare-fun B74-F () Bool)
(declare-fun B75-F () Bool)
(declare-fun B76-F () Bool)
(declare-fun B77-F () Bool)
(set-info :major-phase |base constraints|)
(set-info :base-constraint-type ||)
(assert (distinct I27 0))
(set-info :base-constraint-type |constraints defining hierarchy (group is filled, if a child is filled)|)
(assert (not (or B47-F B48-F)))
(assert (= B48-F (or B49-F B50-F)))
(assert (= B72-F (or B73-F B74-F)))
(assert (= B41-F (or B42-F B43-F B44-F)))
(assert (= B51-F (or B52-F B70-F)))
(assert (= B52-F (or B53-F B54-F B55-F B56-F B57-F B58-F B59-F B60-F B61-F B62-F B63-F B64-F B65-F B66-F B67-F B68-F B69-F)))
(set-info :base-constraint-type |domainconstraints number-fields|)
(assert (ite B49-F (and (<= I49 999999999999) (>= I49 0)) (= I49 0)))
(assert (ite B50-F (and (<= I50 999999999999) (>= I50 0)) (= I50 0)))
(assert (and (<= I45 999999999999) (>= I45 (- 999999999999))))
(assert (and (<= I46 99999999999999) (>= I46 (- 99999999999999))))
(assert (and (<= I13 999999999999) (>= I13 (- 999999999999))))
(assert (and (<= I14 99999999999999) (>= I14 (- 99999999999999))))
(assert (and (<= I15 99999999999999) (>= I15 (- 99999999999999))))
(assert (and (<= I32 999999999999) (>= I32 (- 999999999999))))
(assert (and (<= I33 99999999999999) (>= I33 (- 99999999999999))))
(assert (and (<= I34 999999999999) (>= I34 (- 999999999999))))
(assert (and (<= I35 99999999999999) (>= I35 (- 99999999999999))))
(assert (and (<= I37 999999999999) (>= I37 0)))
(assert (and (<= I38 999999999999) (>= I38 0)))
(assert (and (<= I39 99999999999999) (>= I39 0)))
(assert (and (<= I40 999999999999) (>= I40 0)))
(assert (ite B42-F (and (<= I42 999999999999) (>= I42 (- 999999999999))) (= I42 0)))
(assert (ite B43-F (and (<= I43 999999999999) (>= I43 (- 999999999999))) (= I43 0)))
(assert (ite B44-F true false))
(assert (and (<= I19 999999999999) (>= I19 (- 999999999999))))
(assert (and (<= I20 99999999999999) (>= I20 (- 99999999999999))))
(assert (and (<= I21 999999999999) (>= I21 (- 999999999999))))
(assert (and (<= I22 999999999999) (>= I22 (- 999999999999))))
(assert (and (<= I26 99999999999999) (>= I26 (- 99999999999999))))
(assert (and (<= I27 999999999999) (>= I27 (- 999999999999))))
(assert (ite B56-F true false))
(assert (ite B55-F true false))
(assert (ite B53-F (and (<= I53 99999999999999) (>= I53 (- 9999999999999))) (= I53 0)))
(assert (ite B54-F (and (<= I54 99999999999999) (>= I54 (- 9999999999999))) (= I54 0)))
(assert (ite B57-F true false))
(assert (ite B59-F (and (<= I59 99999999999999) (>= I59 (- 9999999999999))) (= I59 0)))
(assert (ite B58-F (and (<= I58 99999999999999) (>= I58 (- 9999999999999))) (= I58 0)))
(assert (ite B60-F true false))
(assert (ite B61-F true false))
(assert (ite B62-F (and (<= I62 99999999999999) (>= I62 (- 9999999999999))) (= I62 0)))
(assert (ite B63-F true false))
(assert (ite B67-F (and (<= I67 99999999999999) (>= I67 (- 9999999999999))) (= I67 0)))
(assert (ite B64-F (and (<= I64 99999999999999) (>= I64 (- 9999999999999))) (= I64 0)))
(assert (ite B65-F (and (<= I65 99999999999999) (>= I65 (- 9999999999999))) (= I65 0)))
(assert (ite B66-F (and (<= I66 99999999999999) (>= I66 (- 9999999999999))) (= I66 0)))
(assert (ite B68-F (and (<= I68 99999999999999) (>= I68 (- 9999999999999))) (= I68 0)))
(assert (ite B69-F (and (<= I69 99999999999999) (>= I69 (- 9999999999999))) (= I69 0)))
(assert (ite B70-F (and (<= I71 99999999999999) (>= I71 (- 9999999999999))) (= I71 0)))
(set-info :base-constraint-type |domainconstraints date-fields|)
(assert (and (ite B47-F (and (> I47-y 1900) (< I47-y 2100)) (= I47-y 0)) (ite B47-F (and (> I47-m 0) (<= I47-m 12)) (= I47-m 0)) (ite B47-F (and (> I47-d 0) (<= I47-d (ite (or (= I47-m 0) (= I47-m 1) (= I47-m 3) (= I47-m 5) (= I47-m 7) (= I47-m 8) (= I47-m 10) (= I47-m 12)) 31 (ite (or (= I47-m 4) (= I47-m 6) (= I47-m 9) (= I47-m 11)) 30 (ite (= (mod I47-y 4) 0) 29 28))))) (= I47-d 0))))
(assert (ite B7-F (and (> I7-y 1900) (< I7-y 2100)) (= I7-y 0)))
(assert (and (> I12-y 1900) (< I12-y 2100) (> I12-m 0) (<= I12-m 12) (> I12-d 0) (<= I12-d (ite (or (= I12-m 0) (= I12-m 1) (= I12-m 3) (= I12-m 5) (= I12-m 7) (= I12-m 8) (= I12-m 10) (= I12-m 12)) 31 (ite (or (= I12-m 4) (= I12-m 6) (= I12-m 9) (= I12-m 11)) 30 (ite (= (mod I12-y 4) 0) 29 28))))))
(assert (and (> I11-y 1900) (< I11-y 2100) (> I11-m 0) (<= I11-m 12) (> I11-d 0) (<= I11-d (ite (or (= I11-m 0) (= I11-m 1) (= I11-m 3) (= I11-m 5) (= I11-m 7) (= I11-m 8) (= I11-m 10) (= I11-m 12)) 31 (ite (or (= I11-m 4) (= I11-m 6) (= I11-m 9) (= I11-m 11)) 30 (ite (= (mod I11-y 4) 0) 29 28))))))
(assert (and (ite B30-F (and (> I30-y 1900) (< I30-y 2100)) (= I30-y 0)) (ite B30-F (and (> I30-m 0) (<= I30-m 12)) (= I30-m 0)) (ite B30-F (and (> I30-d 0) (<= I30-d (ite (or (= I30-m 0) (= I30-m 1) (= I30-m 3) (= I30-m 5) (= I30-m 7) (= I30-m 8) (= I30-m 10) (= I30-m 12)) 31 (ite (or (= I30-m 4) (= I30-m 6) (= I30-m 9) (= I30-m 11)) 30 (ite (= (mod I30-y 4) 0) 29 28))))) (= I30-d 0))))
(assert (and (> I29-y 1900) (< I29-y 2100) (> I29-m 0) (<= I29-m 12) (> I29-d 0) (<= I29-d (ite (or (= I29-m 0) (= I29-m 1) (= I29-m 3) (= I29-m 5) (= I29-m 7) (= I29-m 8) (= I29-m 10) (= I29-m 12)) 31 (ite (or (= I29-m 4) (= I29-m 6) (= I29-m 9) (= I29-m 11)) 30 (ite (= (mod I29-y 4) 0) 29 28))))))
(assert (and (ite B31-F (and (> I31-y 1900) (< I31-y 2100)) (= I31-y 0)) (ite B31-F (and (> I31-m 0) (<= I31-m 12)) (= I31-m 0)) (ite B31-F (and (> I31-d 0) (<= I31-d (ite (or (= I31-m 0) (= I31-m 1) (= I31-m 3) (= I31-m 5) (= I31-m 7) (= I31-m 8) (= I31-m 10) (= I31-m 12)) 31 (ite (or (= I31-m 4) (= I31-m 6) (= I31-m 9) (= I31-m 11)) 30 (ite (= (mod I31-y 4) 0) 29 28))))) (= I31-d 0))))
(assert (and (> I36-y 1900) (< I36-y 2100) (> I36-m 0) (<= I36-m 12) (> I36-d 0) (<= I36-d (ite (or (= I36-m 0) (= I36-m 1) (= I36-m 3) (= I36-m 5) (= I36-m 7) (= I36-m 8) (= I36-m 10) (= I36-m 12)) 31 (ite (or (= I36-m 4) (= I36-m 6) (= I36-m 9) (= I36-m 11)) 30 (ite (= (mod I36-y 4) 0) 29 28))))))
(assert (and (> I18-y 1900) (< I18-y 2100) (> I18-m 0) (<= I18-m 12) (> I18-d 0) (<= I18-d (ite (or (= I18-m 0) (= I18-m 1) (= I18-m 3) (= I18-m 5) (= I18-m 7) (= I18-m 8) (= I18-m 10) (= I18-m 12)) 31 (ite (or (= I18-m 4) (= I18-m 6) (= I18-m 9) (= I18-m 11)) 30 (ite (= (mod I18-y 4) 0) 29 28))))))
(assert (and (> I17-y 1900) (< I17-y 2100) (> I17-m 0) (<= I17-m 12) (> I17-d 0) (<= I17-d (ite (or (= I17-m 0) (= I17-m 1) (= I17-m 3) (= I17-m 5) (= I17-m 7) (= I17-m 8) (= I17-m 10) (= I17-m 12)) 31 (ite (or (= I17-m 4) (= I17-m 6) (= I17-m 9) (= I17-m 11)) 30 (ite (= (mod I17-y 4) 0) 29 28))))))
(assert (or (< I16-s-y I16-e-y) (and (= I16-s-y I16-e-y) (< I16-s-m I16-e-m)) (and (= I16-s-y I16-e-y) (= I16-s-m I16-e-m) (<= I16-s-d I16-e-d))))
(assert (and (>= I16-e-d 1) (<= I16-e-d (ite (or (= I16-e-m 0) (= I16-e-m 1) (= I16-e-m 3) (= I16-e-m 5) (= I16-e-m 7) (= I16-e-m 8) (= I16-e-m 10) (= I16-e-m 12)) 31 (ite (or (= I16-e-m 4) (= I16-e-m 6) (= I16-e-m 9) (= I16-e-m 11)) 30 (ite (= (mod I16-e-y 4) 0) 29 28))))))
(assert (and (>= I16-e-m 1) (<= I16-e-m 12)))
(assert (and (>= I16-e-y 1901) (<= I16-e-y 2099)))
(assert (and (>= I16-s-d 1) (<= I16-s-d (ite (or (= I16-s-m 0) (= I16-s-m 1) (= I16-s-m 3) (= I16-s-m 5) (= I16-s-m 7) (= I16-s-m 8) (= I16-s-m 10) (= I16-s-m 12)) 31 (ite (or (= I16-s-m 4) (= I16-s-m 6) (= I16-s-m 9) (= I16-s-m 11)) 30 (ite (= (mod I16-s-y 4) 0) 29 28))))))
(assert (and (>= I16-s-m 1) (<= I16-s-m 12)))
(assert (and (>= I16-s-y 1901) (<= I16-s-y 2099)))
(assert (and (> I25-y 1900) (< I25-y 2100) (> I25-m 0) (<= I25-m 12) (> I25-d 0) (<= I25-d (ite (or (= I25-m 0) (= I25-m 1) (= I25-m 3) (= I25-m 5) (= I25-m 7) (= I25-m 8) (= I25-m 10) (= I25-m 12)) 31 (ite (or (= I25-m 4) (= I25-m 6) (= I25-m 9) (= I25-m 11)) 30 (ite (= (mod I25-y 4) 0) 29 28))))))
(assert (and (> I24-y 1900) (< I24-y 2100) (> I24-m 0) (<= I24-m 12) (> I24-d 0) (<= I24-d (ite (or (= I24-m 0) (= I24-m 1) (= I24-m 3) (= I24-m 5) (= I24-m 7) (= I24-m 8) (= I24-m 10) (= I24-m 12)) 31 (ite (or (= I24-m 4) (= I24-m 6) (= I24-m 9) (= I24-m 11)) 30 (ite (= (mod I24-y 4) 0) 29 28))))))
(assert (or (< I23-s-y I23-e-y) (and (= I23-s-y I23-e-y) (< I23-s-m I23-e-m)) (and (= I23-s-y I23-e-y) (= I23-s-m I23-e-m) (<= I23-s-d I23-e-d))))
(assert (and (>= I23-e-d 1) (<= I23-e-d (ite (or (= I23-e-m 0) (= I23-e-m 1) (= I23-e-m 3) (= I23-e-m 5) (= I23-e-m 7) (= I23-e-m 8) (= I23-e-m 10) (= I23-e-m 12)) 31 (ite (or (= I23-e-m 4) (= I23-e-m 6) (= I23-e-m 9) (= I23-e-m 11)) 30 (ite (= (mod I23-e-y 4) 0) 29 28))))))
(assert (and (>= I23-e-m 1) (<= I23-e-m 12)))
(assert (and (>= I23-e-y 1901) (<= I23-e-y 2099)))
(assert (and (>= I23-s-d 1) (<= I23-s-d (ite (or (= I23-s-m 0) (= I23-s-m 1) (= I23-s-m 3) (= I23-s-m 5) (= I23-s-m 7) (= I23-s-m 8) (= I23-s-m 10) (= I23-s-m 12)) 31 (ite (or (= I23-s-m 4) (= I23-s-m 6) (= I23-s-m 9) (= I23-s-m 11)) 30 (ite (= (mod I23-s-y 4) 0) 29 28))))))
(assert (and (>= I23-s-m 1) (<= I23-s-m 12)))
(assert (and (>= I23-s-y 1901) (<= I23-s-y 2099)))
(set-info :base-constraint-type |constraints for date-strategy|)
(assert (and (> I10-N 1900) (< I10-N 2100)))
(assert (and (> I10-N 1900) (< I10-N 2100)))
(set-info :base-constraint-type |domainconstraints string fields|)
(assert (and (>= I10-N 0) (<= I10-N 9999)))
(assert (and (>= I28-N 0) (<= I28-N 9999)))
(set-info :base-constraint-type |domainconstraints index-based string fields|)
(assert (or (= I2-N 0) (= I2-N 1)))
(assert (ite B8-F (or (= I8-N 1) (= I8-N 2) (= I8-N 3) (= I8-N 4) (= I8-N 5) (= I8-N 6) (= I8-N 7) (= I8-N 8) (= I8-N 9) (= I8-N 10) (= I8-N 11) (= I8-N 12)) (= I8-N 0)))
(assert (or (= I1-i 1) (= I1-i 2) (= I1-i 3) (= I1-i 4) (= I1-i 5) (= I1-i 6) (= I1-i 7) (= I1-i 8) (= I1-i 9) (= I1-i 10) (= I1-i 11) (= I1-i 12) (= I1-i 13) (= I1-i 14) (= I1-i 15)))
(assert (ite B3-F (or (= I3-i 1) (= I3-i 2) (= I3-i 3) (= I3-i 4) (= I3-i 5) (= I3-i 6) (= I3-i 7) (= I3-i 8) (= I3-i 9) (= I3-i 10) (= I3-i 11) (= I3-i 12) (= I3-i 13) (= I3-i 14) (= I3-i 15)) (= I3-i 0)))
(set-info :base-constraint-type |constraints, guarding filling of calculations|)
(assert B70-F)
(set-info :base-constraint-type |constraints from validation-rules|)
(assert (not (and B50-F B49-F (distinct I49 0) (distinct I50 (div (* I49 15) 100)))))
(assert (not (and B47-F (or (< I47-y 2025) (> I47-y 2025)))))
(assert (not (and (or B74-F B73-F) (not (and B74-F B73-F)))))
(assert (not (and (not B53-F) (not B54-F) (not B55-F) (not B56-F) (not B57-F) (not B58-F) (not B59-F) (not B60-F) (not B61-F) (not B62-F) (not B63-F) (not B64-F) (not B65-F) (not B66-F) (not B67-F) (not B68-F) (not B69-F) (not B70-F))))
(assert (not (distinct I45 (+ I19 I21 I22 I27 I32 I34 I38 I40 I43 100350))))
(assert (not (distinct I46 (+ I14 I15 I20 I26 I33 I35 I39 99995400515221))))
(assert (not (and B7-F (or (< I7-y 2025) (> I7-y 2025)))))
(assert (not (or (> I12-y I11-y) (and (= I12-y I11-y) (> I12-m I11-m)) (and (= I12-y I11-y) (= I12-m I11-m) (> I12-d I11-d)))))
(assert (not (or (distinct I11-y (ite B7-F I7-y 0)) (distinct I11-m I8-N))))
(assert (not (>= (ite (and (>= I10-N 1) (<= I10-N 9999)) (+ (- I12-y I10-N) (ite (or (< I10-N I12-y) (and (= I10-N I12-y) (< 5 I12-m)) (and (= I10-N I12-y) (= 5 I12-m) (< 1 I12-d)) (and (= I10-N I12-y) (= 5 I12-m) (= 1 I12-d))) (ite (or (< 5 I12-m) (and (= 5 I12-m) (<= 1 I12-d))) 0 (- 1)) (ite (or (> 5 I12-m) (and (= 5 I12-m) (>= 1 I12-d))) 0 1))) 0) 1)))
(assert (not (< I11-y I10-N)))
(assert (not (> I10-N 2025)))
(assert (not (> (ite (>= (- I14 2607) 0) (- I14 2607) (- (- I14 2607))) 100)))
(assert (not (> 47400 (+ (* I13 15) 100))))
(assert (not (> (ite (>= (- I15 547283) 0) (- I15 547283) (- (- I15 547283))) 100)))
(assert (not (and B30-F (not B31-F))))
(assert (not (and B30-F (or (< I30-y I29-y) (and (= I30-y I29-y) (< I30-m I29-m)) (and (= I30-y I29-y) (= I30-m I29-m) (< I30-d I29-d)) (and (= I30-y I29-y) (= I30-m I29-m) (= I30-d I29-d))))))
(assert (not (and B30-F (< I30-y I28-N))))
(assert (not (and B30-F B31-F (or (< I30-y I31-y) (and (= I30-y I31-y) (< I30-m I31-m)) (and (= I30-y I31-y) (= I30-m I31-m) (< I30-d I31-d))))))
(assert (not (and B30-F (or (< I30-y (ite B7-F I7-y 0)) (and (= I30-y (ite B7-F I7-y 0)) (< I30-m I8-N))))))
(assert (not (and B31-F (< I31-y 2023))))
(assert (not (distinct I29-y I28-N)))
(assert (not (or (> I29-y (ite B7-F I7-y 0)) (and (= I29-y (ite B7-F I7-y 0)) (> I29-m I8-N)))))
(assert (not (> I28-N 2025)))
(assert (not (or (and (or (< I29-y 2022) (and (= I29-y 2022) (< I29-m 10)) (and (= I29-y 2022) (= I29-m 10) (< I29-d 1))) (< I28-N 2025)) (and (or (> I29-y 2022) (and (= I29-y 2022) (> I29-m 10)) (and (= I29-y 2022) (= I29-m 10) (> I29-d 1)) (and (= I29-y 2022) (= I29-m 10) (= I29-d 1))) (or (and (< I28-N 2025) (= I28-N 2024) (>= I8-N 5) (<= I8-N 12)) (and (< I28-N 2025) (distinct I28-N 2024)))))))
(assert (not (or (and (= I29-y (ite B7-F I7-y 0)) (< I29-m (- I8-N 4))) (and (distinct I29-y (ite B7-F I7-y 0)) (< I29-y (- (ite B7-F I7-y 0) 1))) (and (distinct I29-y (ite B7-F I7-y 0)) (= I29-y (- (ite B7-F I7-y 0) 1)) (> I29-m 8) (< I29-m (- (+ I8-N 12) 4))) (and (distinct I29-y (ite B7-F I7-y 0)) (= I29-y (- (ite B7-F I7-y 0) 1)) (<= I29-m 8)))))
(assert (not (or (= I32 0) (= I34 0))))
(assert (not (> (ite (>= (- I33 (div (* I32 55) 10)) 0) (- I33 (div (* I32 55) 10)) (- (- I33 (div (* I32 55) 10)))) 100)))
(assert (not (or (> (* I32 100) (- 1041635390)) (> (* I34 100) 115))))
(assert (not (> (ite (>= (- I35 (div (* I34 55) 10)) 0) (- I35 (div (* I34 55) 10)) (- (- I35 (div (* I34 55) 10)))) 100)))
(assert (not (or (and (distinct I37 0) (= I38 0)) (= I40 0))))
(assert (not (or (> (* I38 100) (+ (* I37 15) 100)) (> (* I40 100) 13164542530))))
(assert (not (> (ite (>= (- I39 (div (* I38 55) 10)) 0) (- I39 (div (* I38 55) 10)) (- (- I39 (div (* I38 55) 10)))) 100)))
(assert (not (> (ite (>= (- 0 (div (* I40 55) 10)) 0) (- 0 (div (* I40 55) 10)) (- (- 0 (div (* I40 55) 10)))) 100)))
(assert (not (and B42-F (distinct I42 0) (= I43 0))))
(assert (not (and B43-F B44-F (> (ite (>= (- 99999999999999 (div (* I43 55) 10)) 0) (- 99999999999999 (div (* I43 55) 10)) (- (- 99999999999999 (div (* I43 55) 10)))) 100))))
(assert (not (and B43-F (> (* I43 100) (+ (* I42 15) 100)))))
(assert (not (or (> I36-y (ite B7-F I7-y 0)) (and (> I36-m I8-N) (= I36-y (ite B7-F I7-y 0))))))
(assert (not (or (> I18-y I17-y) (and (= I18-y I17-y) (> I18-m I17-m)) (and (= I18-y I17-y) (= I18-m I17-m) (> I18-d I17-d)))))
(assert (not (or (distinct I17-y (ite B7-F I7-y 0)) (distinct I17-m I8-N))))
(assert (not (< I17-y 2025)))
(assert (not (or (= I19 0) (= I21 0) (= I22 0))))
(assert (not (> (ite (>= (- I20 (div (* I19 55) 10)) 0) (- I20 (div (* I19 55) 10)) (- (- I20 (div (* I19 55) 10)))) 100)))
(assert (not (or (> (* I19 100) (- 14999999999885)) (> (* I21 100) 115) (> (* I22 100) (- 1241990)))))
(assert (not (> (ite (>= (- 0 (div (* I21 55) 10)) 0) (- 0 (div (* I21 55) 10)) (- (- 0 (div (* I21 55) 10)))) 100)))
(assert (not (> (ite (>= (- (- 629639) (div (* I22 55) 10)) 0) (- (- 629639) (div (* I22 55) 10)) (- (- (- 629639) (div (* I22 55) 10)))) 100)))
(assert (not (or (> I16-e-y I17-y) (and (= I16-e-y I17-y) (> I16-e-m I17-m)) (and (= I16-e-y I17-y) (= I16-e-m I17-m) (> I16-e-d I17-d)))))
(assert (not (or (< I16-s-y (- I16-e-y 1)) (and (= I16-s-y (- I16-e-y 1)) (< I16-s-m I16-e-m)) (and (= I16-s-y (- I16-e-y 1)) (= I16-s-m I16-e-m) (< I16-s-d (+ I16-e-d 1))))))
(assert (not (or (> I25-y I24-y) (and (= I25-y I24-y) (> I25-m I24-m)) (and (= I25-y I24-y) (= I25-m I24-m) (> I25-d I24-d)))))
(assert (not (or (distinct I24-y (ite B7-F I7-y 0)) (distinct I24-m I8-N))))
(assert (not (< I24-y 2025)))
(assert (not (= I27 0)))
(assert (not (> (* I27 100) 55)))
(assert (not (> (ite (>= (- I26 2035) 0) (- I26 2035) (- (- I26 2035))) 100)))
(assert (not (> (ite (>= (- (- 4598855139) (div (* I27 55) 10)) 0) (- (- 4598855139) (div (* I27 55) 10)) (- (- (- 4598855139) (div (* I27 55) 10)))) 100)))
(assert (not (or (> I23-e-y I24-y) (and (= I23-e-y I24-y) (> I23-e-m I24-m)) (and (= I23-e-y I24-y) (= I23-e-m I24-m) (> I23-e-d I24-d)))))
(assert (not (or (< I23-s-y (- I23-e-y 1)) (and (= I23-s-y (- I23-e-y 1)) (< I23-s-m I23-e-m)) (and (= I23-s-y (- I23-e-y 1)) (= I23-s-m I23-e-m) (< I23-s-d (+ I23-e-d 1))))))
(assert (not B47-F))
(assert (and B7-F B8-F))
(assert (not (and B7-F B8-F (or (< 2026 I7-y) (and (= 2026 I7-y) (<= 6 I8-N))))))
(assert (not (and B7-F B8-F (or (< 2027 I7-y) (and (= 2027 I7-y) (<= 6 I8-N))))))
(assert (not (and B3-F (= I2-N 0))))
(assert (not (and B3-F (= I3-i I1-i))))
(assert (not (and (or B56-F B55-F B57-F B53-F B54-F B58-F B59-F B60-F B61-F B62-F B69-F B63-F B66-F B67-F B64-F B65-F B68-F) (not B70-F))))
(assert (not (and B70-F (or B56-F B55-F B57-F B53-F B54-F B58-F B59-F B60-F B61-F B62-F B69-F B63-F B66-F B67-F B64-F B65-F B68-F) (distinct I71 (+ I53 I54 I58 I59 I62 I69 I66 I67 I64 I65 I68 99994230379504)))))
(assert (not (and B70-F (not B56-F) (not B55-F) (not B57-F) (not B53-F) (not B54-F) (not B58-F) (not B59-F) (not B60-F) (not B61-F) (not B62-F) (not B69-F) (not B63-F) (not B66-F) (not B67-F) (not B64-F) (not B65-F) (not B68-F))))
(assert (not (and B70-F (distinct I71 (* I45 100)))))
(set-info :major-phase |control constraints|)
(push 1)
(assert B7-F)
(set-info :status sat)
(check-sat)
(push 1)
(assert B47-F)
(set-info :status unsat)
(check-sat)
(pop 1)
(push 1)
(assert B6-F)
(set-info :status sat)
(check-sat)
(push 1)
(assert B76-F)
(set-info :status sat)
(check-sat)
(push 1)
(assert B74-F)
(set-info :status sat)
(check-sat)
(push 1)
(assert B58-F)
(set-info :status sat)
(check-sat)
(push 1)
(assert B70-F)
(set-info :status sat)
(check-sat)
(push 1)
(assert B4-F)
(set-info :status sat)
(check-sat)
(push 1)
(assert B31-F)
(set-info :status sat)
(check-sat)
(push 1)
(assert B5-F)
(set-info :status sat)
(check-sat)
(push 1)
(assert B3-F)
(set-info :status sat)
(check-sat)
(push 1)
(assert B9-F)
(set-info :status sat)
(check-sat)
(push 1)
(assert B68-F)
(set-info :status sat)
(check-sat)
(push 1)
(assert B50-F)
(set-info :status unsat)
(check-sat)
(pop 1)
(push 1)
(assert B75-F)
(set-info :status sat)
(check-sat)
(push 1)
(assert B64-F)
(set-info :status sat)
(check-sat)
(push 1)
(assert B65-F)
(set-info :status sat)
(check-sat)
(push 1)
(assert B67-F)
(set-info :status sat)
(check-sat)
(push 1)
(assert B54-F)
(set-info :status sat)
(check-sat)
(push 1)
(assert B66-F)
(set-info :status sat)
(check-sat)
(push 1)
(assert B44-F)
(set-info :status sat)
(check-sat)
(push 1)
(assert B62-F)
(set-info :status sat)
(check-sat)
(push 1)
(assert B59-F)
(set-info :status sat)
(check-sat)
(push 1)
(assert B43-F)
(set-info :status unsat)
(check-sat)
(pop 1)
(push 1)
(assert B49-F)
(set-info :status unsat)
(check-sat)
(pop 1)
(push 1)
(assert B69-F)
(set-info :status sat)
(check-sat)
(push 1)
(assert B30-F)
(set-info :status sat)
(check-sat)
(push 1)
(assert B61-F)
(set-info :status sat)
(check-sat)
(push 1)
(assert B56-F)
(set-info :status sat)
(check-sat)
(push 1)
(assert B55-F)
(set-info :status sat)
(check-sat)
(push 1)
(assert B42-F)
(set-info :status sat)
(check-sat)
(push 1)
(assert B60-F)
(set-info :status sat)
(check-sat)
(push 1)
(assert B63-F)
(set-info :status sat)
(check-sat)
(push 1)
(assert B73-F)
(set-info :status sat)
(check-sat)
(push 1)
(assert B8-F)
(set-info :status sat)
(check-sat)
(push 1)
(assert B77-F)
(set-info :status sat)
(check-sat)
(push 1)
(assert B53-F)
(set-info :status sat)
(check-sat)
(push 1)
(assert B57-F)
(set-info :status sat)
(check-sat)
(exit)

